NAME : 10_3_3_3_(07).dat
COMMENT : Henke, Speranza, Wäscher, 2015
TYPE : MCVRP
DIMENSION : 11
EDGE_WEIGHT_TYPE : DISTANCE_MATRIX
CAPACITY : 1000
VEHICLES : 3
PRODUCT TYPES : 3
COMPARTMENTS : 3
NODE_COORD_SECTION
1 50 50
2 27.81 61.84
3 92.38 6.06
4 63.18 40.41
5 3.9 58.12
6 23.76 75.77
7 73.89 71.75
8 50.3 9.47
9 92.93 4.16
10 11.51 64.87
11 63.7 88.26
DEMAND_SECTION
1 0 0 0
2 119 52 8
3 102 43 38
4 44 66 11
5 81 67 11
6 106 59 84
7 71 5 26
8 141 82 82
9 30 24 21
10 56 40 13
11 62 49 32
DEPOT_SECTION
1
EOF